c defined variables: 32 33 34 35 36 37 38 39 40 41 42 43 44 45 46 47 48 49 50 51 52 53 54 55 56 57 58 59 60 61 62 65 66 67 69 70 71 72 73 76 77 80 82 84 85 86 87 88 89 90 91 92 93 94 95 96 97 99 100 101 104 105 106 107 108 109 110 111 112 113 114 115 117 118 119 120 121 122 124 125 126 129 130 131 132 133 135 136 137 138 139 140 141 142 143 144 145 146 147 148 149 150 151 152 154 155 156 157 158 159 160 163 164 165 166 167 168 169 170 171 172 173 174 175 176 177 178 179 180 181 182 183 184 185 186 187 188 189 190 191 192 193 194 195 196 197 198 199 200 201 202 203 204 205 206 207 208 209 210 211 212 213 214 215 216 217 218 219 220 221 222 223 224 225 226 227 228 229 230 231 232 233 234 235 
p cnf 1034 1534
a 7 8 9 10 11 12 14 15 16 17 18 19 20 21 22 23 24 25 26 27 28 29 0
e 63 64 68 74 75 78 79 81 83 98 102 103 116 123 127 128 134 153 161 162 32 33 34 35 36 37 38 39 40 41 42 43 44 45 46 47 48 49 50 51 52 53 54 55 56 57 58 59 60 61 62 65 66 67 69 70 71 72 73 76 77 80 82 84 85 86 87 88 89 90 91 92 93 94 95 96 97 99 100 101 104 105 106 107 108 109 110 111 112 113 114 115 117 118 119 120 121 122 124 125 126 129 130 131 132 133 135 136 137 138 139 140 141 142 143 144 145 146 147 148 149 150 151 152 154 155 156 157 158 159 160 163 164 165 166 167 168 169 170 171 172 173 174 175 176 177 178 179 180 181 182 183 184 185 186 187 188 189 190 191 192 193 194 195 196 197 198 199 200 201 202 203 204 205 206 207 208 209 210 211 212 213 214 215 216 217 218 219 220 221 222 223 224 225 226 227 228 229 230 231 232 233 234 235 850 851 852 853 854 855 856 857 858 859 860 861 862 863 864 865 866 867 868 869 870 871 872 873 874 875 876 877 878 879 880 881 882 883 884 885 886 887 888 889 890 891 892 893 894 895 896 897 898 899 900 901 902 903 904 905 906 907 908 909 910 911 912 913 914 915 916 917 918 919 920 921 922 923 924 925 926 927 928 929 930 931 932 933 934 935 936 937 938 939 940 941 942 943 944 945 946 947 948 949 950 951 952 953 954 955 956 957 958 959 960 961 962 963 964 965 966 967 968 969 970 971 972 973 974 975 976 977 978 979 980 981 982 983 984 985 986 987 988 989 990 991 992 993 994 995 996 997 998 999 1000 1001 1002 1003 1004 1005 1006 1007 1008 1009 1010 1011 1012 1013 1014 1015 1016 1017 1018 1019 1020 1021 1022 1023 1024 1025 1026 1027 1028 1029 1030 1031 1032 1033 1034 0
d 1 7 8 9 10 11 12 14 15 16 17 18 19 20 21 0
d 2 7 8 9 10 11 12 14 15 16 17 18 19 20 21 0
d 3 7 8 9 10 11 12 14 15 16 17 18 19 20 21 0
d 4 7 8 9 10 11 12 14 15 16 17 18 19 20 21 0
d 5 7 8 9 10 11 12 14 15 16 17 18 19 20 21 0
d 6 7 8 9 10 11 12 14 15 16 17 18 19 20 21 0
d 13 7 8 9 10 11 12 14 15 16 17 18 19 20 21 0
d 30 14 15 16 17 18 19 20 21 0
d 31 22 23 24 25 26 27 28 29 0
851 -32 0
-851 32 0
852 -33 0
-852 33 0
853 -34 0
-853 34 0
854 -35 0
-854 35 0
855 -36 0
-855 36 0
856 -37 0
-856 37 0
857 -38 0
-857 38 0
858 -39 0
-858 39 0
859 -40 0
-859 40 0
860 -41 0
-860 41 0
861 -42 0
-861 42 0
862 -43 0
-862 43 0
863 -44 0
-863 44 0
864 -45 0
-864 45 0
865 -46 0
-865 46 0
866 -47 0
-866 47 0
867 -48 0
-867 48 0
868 -49 0
-868 49 0
869 -50 0
-869 50 0
870 -51 0
-870 51 0
871 -52 0
-871 52 0
872 -53 0
-872 53 0
873 -54 0
-873 54 0
874 -55 0
-874 55 0
875 -56 0
-875 56 0
876 -57 0
-876 57 0
877 -58 0
-877 58 0
878 -59 0
-878 59 0
879 -60 0
-879 60 0
880 -61 0
-880 61 0
881 -62 0
-881 62 0
882 -65 0
-882 65 0
-850 -66 0
850 66 0
883 -67 0
-883 67 0
884 -69 0
-884 69 0
885 -70 0
-885 70 0
886 -71 0
-886 71 0
887 -72 0
-887 72 0
888 -73 0
-888 73 0
889 -76 0
-889 76 0
890 -77 0
-890 77 0
891 -80 0
-891 80 0
892 -82 0
-892 82 0
893 -84 0
-893 84 0
894 -85 0
-894 85 0
895 -86 0
-895 86 0
896 -87 0
-896 87 0
897 -88 0
-897 88 0
900 -89 0
-900 89 0
903 -90 0
-903 90 0
904 -91 0
-904 91 0
905 -92 0
-905 92 0
906 -93 0
-906 93 0
907 -94 0
-907 94 0
908 -95 0
-908 95 0
909 -96 0
-909 96 0
910 -97 0
-910 97 0
911 -99 0
-911 99 0
912 -100 0
-912 100 0
913 -101 0
-913 101 0
914 -104 0
-914 104 0
915 -105 0
-915 105 0
916 -106 0
-916 106 0
917 -107 0
-917 107 0
918 -108 0
-918 108 0
919 -109 0
-919 109 0
920 -110 0
-920 110 0
921 -111 0
-921 111 0
922 -112 0
-922 112 0
923 -113 0
-923 113 0
924 -114 0
-924 114 0
925 -115 0
-925 115 0
926 -117 0
-926 117 0
927 -118 0
-927 118 0
928 -119 0
-928 119 0
929 -120 0
-929 120 0
930 -121 0
-930 121 0
931 -122 0
-931 122 0
932 -124 0
-932 124 0
933 -125 0
-933 125 0
934 -126 0
-934 126 0
935 -129 0
-935 129 0
936 -130 0
-936 130 0
937 -131 0
-937 131 0
938 -132 0
-938 132 0
939 -133 0
-939 133 0
940 -135 0
-940 135 0
941 -136 0
-941 136 0
942 -137 0
-942 137 0
943 -138 0
-943 138 0
944 -139 0
-944 139 0
945 -140 0
-945 140 0
946 -141 0
-946 141 0
947 -142 0
-947 142 0
948 -143 0
-948 143 0
949 -144 0
-949 144 0
950 -145 0
-950 145 0
951 -146 0
-951 146 0
952 -147 0
-952 147 0
953 -148 0
-953 148 0
954 -149 0
-954 149 0
955 -150 0
-955 150 0
956 -151 0
-956 151 0
957 -152 0
-957 152 0
958 -154 0
-958 154 0
959 -155 0
-959 155 0
960 -156 0
-960 156 0
961 -157 0
-961 157 0
962 -158 0
-962 158 0
963 -159 0
-963 159 0
967 -160 0
-967 160 0
968 -163 0
-968 163 0
969 -164 0
-969 164 0
970 -165 0
-970 165 0
971 -166 0
-971 166 0
972 -167 0
-972 167 0
973 -168 0
-973 168 0
974 -169 0
-974 169 0
975 -170 0
-975 170 0
976 -171 0
-976 171 0
977 -172 0
-977 172 0
978 -173 0
-978 173 0
979 -174 0
-979 174 0
980 -175 0
-980 175 0
981 -176 0
-981 176 0
982 -177 0
-982 177 0
983 -178 0
-983 178 0
984 -179 0
-984 179 0
985 -180 0
-985 180 0
986 -181 0
-986 181 0
987 -182 0
-987 182 0
988 -183 0
-988 183 0
989 -184 0
-989 184 0
990 -185 0
-990 185 0
991 -186 0
-991 186 0
992 -187 0
-992 187 0
993 -188 0
-993 188 0
994 -189 0
-994 189 0
995 -190 0
-995 190 0
996 -191 0
-996 191 0
997 -192 0
-997 192 0
998 -193 0
-998 193 0
999 -194 0
-999 194 0
1000 -195 0
-1000 195 0
1001 -196 0
-1001 196 0
1002 -197 0
-1002 197 0
1003 -198 0
-1003 198 0
1004 -199 0
-1004 199 0
1005 -200 0
-1005 200 0
1006 -201 0
-1006 201 0
1007 -202 0
-1007 202 0
1008 -203 0
-1008 203 0
1009 -204 0
-1009 204 0
1010 -205 0
-1010 205 0
1011 -206 0
-1011 206 0
1012 -207 0
-1012 207 0
1013 -208 0
-1013 208 0
1014 -209 0
-1014 209 0
1015 -210 0
-1015 210 0
1016 -211 0
-1016 211 0
1017 -212 0
-1017 212 0
1018 -213 0
-1018 213 0
1019 -214 0
-1019 214 0
1020 -215 0
-1020 215 0
1021 -216 0
-1021 216 0
-850 -217 0
850 217 0
1022 -218 0
-1022 218 0
1023 -219 0
-1023 219 0
1024 -220 0
-1024 220 0
1025 -221 0
-1025 221 0
1026 -222 0
-1026 222 0
1027 -223 0
-1027 223 0
-850 -224 0
850 224 0
1028 -225 0
-1028 225 0
1029 -226 0
-1029 226 0
1030 -227 0
-1030 227 0
1031 -228 0
-1031 228 0
1032 -229 0
-1032 229 0
1033 -230 0
-1033 230 0
1034 -231 0
-1034 231 0
-850 -232 0
850 232 0
850 -233 0
-850 233 0
850 -234 0
-850 234 0
850 -235 0
-850 235 0
-32 -22 0
-32 14 0
32 22 -14 0
-33 22 0
-33 -14 0
33 -22 14 0
-34 -32 0
-34 -33 0
34 32 33 0
-35 -23 0
-35 15 0
35 23 -15 0
-36 23 0
-36 -15 0
36 -23 15 0
-37 -35 0
-37 -36 0
37 35 36 0
-38 34 0
-38 37 0
38 -34 -37 0
-39 -24 0
-39 16 0
39 24 -16 0
-40 24 0
-40 -16 0
40 -24 16 0
-41 -39 0
-41 -40 0
41 39 40 0
-42 -25 0
-42 17 0
42 25 -17 0
-43 25 0
-43 -17 0
43 -25 17 0
-44 -42 0
-44 -43 0
44 42 43 0
-45 41 0
-45 44 0
45 -41 -44 0
-46 38 0
-46 45 0
46 -38 -45 0
-47 -26 0
-47 18 0
47 26 -18 0
-48 26 0
-48 -18 0
48 -26 18 0
-49 -47 0
-49 -48 0
49 47 48 0
-50 -27 0
-50 19 0
50 27 -19 0
-51 27 0
-51 -19 0
51 -27 19 0
-52 -50 0
-52 -51 0
52 50 51 0
-53 49 0
-53 52 0
53 -49 -52 0
-54 -28 0
-54 20 0
54 28 -20 0
-55 28 0
-55 -20 0
55 -28 20 0
-56 -54 0
-56 -55 0
56 54 55 0
-57 -29 0
-57 21 0
57 29 -21 0
-58 29 0
-58 -21 0
58 -29 21 0
-59 -57 0
-59 -58 0
59 57 58 0
-60 56 0
-60 59 0
60 -56 -59 0
-61 53 0
-61 60 0
61 -53 -60 0
-62 46 0
-62 61 0
62 -46 -61 0
-63 31 0
-63 -30 0
63 -31 30 0
-64 -31 0
-64 30 0
64 31 -30 0
-65 -63 0
-65 -64 0
65 63 64 0
-66 62 0
-66 -65 0
66 -62 65 0
-67 15 0
-67 14 0
67 -15 -14 0
-68 -13 0
-68 -67 0
68 13 67 0
-69 -23 0
-69 -68 0
69 23 68 0
-70 23 0
-70 68 0
70 -23 -68 0
-71 -69 0
-71 -70 0
71 69 70 0
-72 22 0
-72 71 0
72 -22 -71 0
-73 16 0
-73 14 0
73 -16 -14 0
-74 -2 0
-74 -1 0
74 2 1 0
-75 6 0
-75 -74 0
75 -6 74 0
-76 -8 0
-76 -75 0
76 8 75 0
-77 -9 0
-77 76 0
77 9 -76 0
-78 -8 0
-78 -1 0
78 8 1 0
-79 8 0
-79 1 0
79 -8 -1 0
-80 -78 0
-80 -79 0
80 78 79 0
-81 9 0
-81 2 0
81 -9 -2 0
-82 -80 0
-82 81 0
82 80 -81 0
-83 -9 0
-83 -2 0
83 9 2 0
-84 79 0
-84 83 0
84 -79 -83 0
-85 -82 0
-85 -84 0
85 82 84 0
-86 6 0
-86 -85 0
86 -6 85 0
-87 -77 0
-87 -86 0
87 77 86 0
-88 -7 0
-88 -87 0
88 7 87 0
-89 8 0
-89 2 0
89 -8 -2 0
-90 9 0
-90 1 0
90 -9 -1 0
-91 89 0
-91 90 0
91 -89 -90 0
-92 -7 0
-92 91 0
92 7 -91 0
-93 7 0
-93 2 0
93 -7 -2 0
-94 79 0
-94 93 0
94 -79 -93 0
-95 89 0
-95 -94 0
95 -89 94 0
-96 -90 0
-96 -95 0
96 90 95 0
-97 -92 0
-97 -96 0
97 92 96 0
-98 7 0
-98 3 0
98 -7 -3 0
-99 -97 0
-99 -98 0
99 97 98 0
-100 97 0
-100 98 0
100 -97 -98 0
-101 -99 0
-101 -100 0
101 99 100 0
-102 -6 0
-102 101 0
102 6 -101 0
-103 6 0
-103 3 0
103 -6 -3 0
-104 -102 0
-104 -103 0
104 102 103 0
-105 10 0
-105 104 0
105 -10 -104 0
-106 -10 0
-106 -104 0
106 10 104 0
-107 -105 0
-107 -106 0
107 105 106 0
-108 88 0
-108 107 0
108 -88 -107 0
-109 -91 0
-109 -94 0
109 91 94 0
-110 -81 0
-110 109 0
110 81 -109 0
-111 -91 0
-111 -110 0
111 91 110 0
-112 10 0
-112 1 0
112 -10 -1 0
-113 -111 0
-113 -112 0
113 111 112 0
-114 111 0
-114 112 0
114 -111 -112 0
-115 -113 0
-115 -114 0
115 113 114 0
-116 8 0
-116 3 0
116 -8 -3 0
-117 -115 0
-117 -116 0
117 115 116 0
-118 115 0
-118 116 0
118 -115 -116 0
-119 -117 0
-119 -118 0
119 117 118 0
-120 -100 0
-120 -119 0
120 100 119 0
-121 100 0
-121 119 0
121 -100 -119 0
-122 -120 0
-122 -121 0
122 120 121 0
-123 7 0
-123 4 0
123 -7 -4 0
-124 -122 0
-124 -123 0
124 122 123 0
-125 122 0
-125 123 0
125 -122 -123 0
-126 -124 0
-126 -125 0
126 124 125 0
-127 -6 0
-127 126 0
127 6 -126 0
-128 6 0
-128 4 0
128 -6 -4 0
-129 -127 0
-129 -128 0
129 127 128 0
-130 11 0
-130 129 0
130 -11 -129 0
-131 -11 0
-131 -129 0
131 11 129 0
-132 -130 0
-132 -131 0
132 130 131 0
-133 108 0
-133 132 0
133 -108 -132 0
-134 9 0
-134 3 0
134 -9 -3 0
-135 100 0
-135 -117 0
135 -100 117 0
-136 -118 0
-136 -135 0
136 118 135 0
-137 -134 0
-137 136 0
137 134 -136 0
-138 134 0
-138 -136 0
138 -134 136 0
-139 -137 0
-139 -138 0
139 137 138 0
-140 -110 0
-140 112 0
140 110 -112 0
-141 -91 0
-141 -140 0
141 91 140 0
-142 10 0
-142 2 0
142 -10 -2 0
-143 11 0
-143 1 0
143 -11 -1 0
-144 -142 0
-144 143 0
144 142 -143 0
-145 142 0
-145 -143 0
145 -142 143 0
-146 -144 0
-146 -145 0
146 144 145 0
-147 -141 0
-147 -146 0
147 141 146 0
-148 141 0
-148 146 0
148 -141 -146 0
-149 -147 0
-149 -148 0
149 147 148 0
-150 -139 0
-150 -149 0
150 139 149 0
-151 139 0
-151 149 0
151 -139 -149 0
-152 -150 0
-152 -151 0
152 150 151 0
-153 8 0
-153 4 0
153 -8 -4 0
-154 -152 0
-154 -153 0
154 152 153 0
-155 152 0
-155 153 0
155 -152 -153 0
-156 -154 0
-156 -155 0
156 154 155 0
-157 -125 0
-157 -156 0
157 125 156 0
-158 125 0
-158 156 0
158 -125 -156 0
-159 -157 0
-159 -158 0
159 157 158 0
-160 -6 0
-160 159 0
160 6 -159 0
-161 -7 0
-161 -6 0
161 7 6 0
-162 5 0
-162 -161 0
162 -5 161 0
-163 -160 0
-163 162 0
163 160 -162 0
-164 160 0
-164 -162 0
164 -160 162 0
-165 -163 0
-165 -164 0
165 163 164 0
-166 12 0
-166 165 0
166 -12 -165 0
-167 -12 0
-167 -165 0
167 12 165 0
-168 -166 0
-168 -167 0
168 166 167 0
-169 133 0
-169 168 0
169 -133 -168 0
-170 73 0
-170 -169 0
170 -73 169 0
-171 -73 0
-171 169 0
171 73 -169 0
-172 -170 0
-172 -171 0
172 170 171 0
-173 -24 0
-173 172 0
173 24 -172 0
-174 24 0
-174 -172 0
174 -24 172 0
-175 -173 0
-175 -174 0
175 173 174 0
-176 17 0
-176 14 0
176 -17 -14 0
-177 176 0
-177 170 0
177 -176 -170 0
-178 -176 0
-178 -170 0
178 176 170 0
-179 -177 0
-179 -178 0
179 177 178 0
-180 -25 0
-180 179 0
180 25 -179 0
-181 25 0
-181 -179 0
181 -25 179 0
-182 -180 0
-182 -181 0
182 180 181 0
-183 175 0
-183 182 0
183 -175 -182 0
-184 72 0
-184 183 0
184 -72 -183 0
-185 18 0
-185 14 0
185 -18 -14 0
-186 185 0
-186 177 0
186 -185 -177 0
-187 -185 0
-187 -177 0
187 185 177 0
-188 -186 0
-188 -187 0
188 186 187 0
-189 -26 0
-189 188 0
189 26 -188 0
-190 26 0
-190 -188 0
190 -26 188 0
-191 -189 0
-191 -190 0
191 189 190 0
-192 19 0
-192 14 0
192 -19 -14 0
-193 192 0
-193 186 0
193 -192 -186 0
-194 -192 0
-194 -186 0
194 192 186 0
-195 -193 0
-195 -194 0
195 193 194 0
-196 -27 0
-196 195 0
196 27 -195 0
-197 27 0
-197 -195 0
197 -27 195 0
-198 -196 0
-198 -197 0
198 196 197 0
-199 191 0
-199 198 0
199 -191 -198 0
-200 20 0
-200 14 0
200 -20 -14 0
-201 200 0
-201 193 0
201 -200 -193 0
-202 -200 0
-202 -193 0
202 200 193 0
-203 -201 0
-203 -202 0
203 201 202 0
-204 -28 0
-204 203 0
204 28 -203 0
-205 28 0
-205 -203 0
205 -28 203 0
-206 -204 0
-206 -205 0
206 204 205 0
-207 21 0
-207 14 0
207 -21 -14 0
-208 207 0
-208 -201 0
208 -207 201 0
-209 -207 0
-209 201 0
209 207 -201 0
-210 -208 0
-210 -209 0
210 208 209 0
-211 -29 0
-211 -210 0
211 29 210 0
-212 29 0
-212 210 0
212 -29 -210 0
-213 -211 0
-213 -212 0
213 211 212 0
-214 206 0
-214 213 0
214 -206 -213 0
-215 199 0
-215 214 0
215 -199 -214 0
-216 184 0
-216 215 0
216 -184 -215 0
-217 216 0
-217 64 0
217 -216 -64 0
-218 16 0
-218 176 0
218 -16 -176 0
-219 185 0
-219 218 0
219 -185 -218 0
-220 192 0
-220 219 0
220 -192 -219 0
-221 200 0
-221 220 0
221 -200 -220 0
-222 207 0
-222 221 0
222 -207 -221 0
-223 222 0
-223 67 0
223 -222 -67 0
-224 30 0
-224 223 0
224 -30 -223 0
-225 -15 0
-225 -14 0
225 15 14 0
-226 -17 0
-226 -16 0
226 17 16 0
-227 225 0
-227 226 0
227 -225 -226 0
-228 -19 0
-228 -18 0
228 19 18 0
-229 -21 0
-229 -20 0
229 21 20 0
-230 228 0
-230 229 0
230 -228 -229 0
-231 227 0
-231 230 0
231 -227 -230 0
-232 -30 0
-232 231 0
232 30 -231 0
-233 -224 0
-233 -232 0
233 224 232 0
-234 -217 0
-234 233 0
234 217 -233 0
-235 -66 0
-235 234 0
235 66 -234 0
235 0
850 0
14 -851 0
-22 -851 0
-14 22 851 0
-14 -852 0
22 -852 0
14 -22 852 0
-32 -853 0
-33 -853 0
32 33 853 0
15 -854 0
-23 -854 0
-15 23 854 0
-15 -855 0
23 -855 0
15 -23 855 0
-35 -856 0
-36 -856 0
35 36 856 0
34 -857 0
37 -857 0
-34 -37 857 0
16 -858 0
-24 -858 0
-16 24 858 0
-16 -859 0
24 -859 0
16 -24 859 0
-39 -860 0
-40 -860 0
39 40 860 0
17 -861 0
-25 -861 0
-17 25 861 0
-17 -862 0
25 -862 0
17 -25 862 0
-42 -863 0
-43 -863 0
42 43 863 0
41 -864 0
44 -864 0
-41 -44 864 0
38 -865 0
45 -865 0
-38 -45 865 0
18 -866 0
-26 -866 0
-18 26 866 0
-18 -867 0
26 -867 0
18 -26 867 0
-47 -868 0
-48 -868 0
47 48 868 0
19 -869 0
-27 -869 0
-19 27 869 0
-19 -870 0
27 -870 0
19 -27 870 0
-50 -871 0
-51 -871 0
50 51 871 0
49 -872 0
52 -872 0
-49 -52 872 0
20 -873 0
-28 -873 0
-20 28 873 0
-20 -874 0
28 -874 0
20 -28 874 0
-54 -875 0
-55 -875 0
54 55 875 0
21 -876 0
-29 -876 0
-21 29 876 0
-21 -877 0
29 -877 0
21 -29 877 0
-57 -878 0
-58 -878 0
57 58 878 0
56 -879 0
59 -879 0
-56 -59 879 0
53 -880 0
60 -880 0
-53 -60 880 0
46 -881 0
61 -881 0
-46 -61 881 0
-63 -882 0
-64 -882 0
63 64 882 0
14 -883 0
15 -883 0
-14 -15 883 0
-23 -884 0
-68 -884 0
23 68 884 0
23 -885 0
68 -885 0
-23 -68 885 0
-69 -886 0
-70 -886 0
69 70 886 0
22 -887 0
71 -887 0
-22 -71 887 0
14 -888 0
16 -888 0
-14 -16 888 0
-8 -889 0
-75 -889 0
8 75 889 0
-9 -890 0
76 -890 0
9 -76 890 0
-78 -891 0
-79 -891 0
78 79 891 0
-80 -892 0
81 -892 0
80 -81 892 0
79 -893 0
83 -893 0
-79 -83 893 0
-82 -894 0
-84 -894 0
82 84 894 0
75 -895 0
-85 -895 0
-75 85 895 0
-77 -896 0
-86 -896 0
77 86 896 0
-7 -897 0
-87 -897 0
7 87 897 0
9 -898 0
-81 -898 0
-9 81 898 0
-83 -899 0
-898 -899 0
83 898 899 0
8 -900 0
899 -900 0
-8 -899 900 0
8 -901 0
-79 -901 0
-8 79 901 0
-78 -902 0
-901 -902 0
78 901 902 0
9 -903 0
902 -903 0
-9 -902 903 0
89 -904 0
90 -904 0
-89 -90 904 0
-7 -905 0
91 -905 0
7 -91 905 0
7 -906 0
899 -906 0
-7 -899 906 0
79 -907 0
93 -907 0
-79 -93 907 0
89 -908 0
-94 -908 0
-89 94 908 0
-90 -909 0
-95 -909 0
90 95 909 0
-92 -910 0
-96 -910 0
92 96 910 0
-97 -911 0
-98 -911 0
97 98 911 0
97 -912 0
98 -912 0
-97 -98 912 0
-99 -913 0
-100 -913 0
99 100 913 0
-102 -914 0
-103 -914 0
102 103 914 0
10 -915 0
104 -915 0
-10 -104 915 0
-10 -916 0
-104 -916 0
10 104 916 0
-105 -917 0
-106 -917 0
105 106 917 0
88 -918 0
107 -918 0
-88 -107 918 0
-91 -919 0
-94 -919 0
91 94 919 0
-81 -920 0
109 -920 0
81 -109 920 0
-91 -921 0
-110 -921 0
91 110 921 0
10 -922 0
902 -922 0
-10 -902 922 0
-111 -923 0
-112 -923 0
111 112 923 0
111 -924 0
112 -924 0
-111 -112 924 0
-113 -925 0
-114 -925 0
113 114 925 0
-115 -926 0
-116 -926 0
115 116 926 0
115 -927 0
116 -927 0
-115 -116 927 0
-117 -928 0
-118 -928 0
117 118 928 0
-100 -929 0
-119 -929 0
100 119 929 0
100 -930 0
119 -930 0
-100 -119 930 0
-120 -931 0
-121 -931 0
120 121 931 0
-122 -932 0
-123 -932 0
122 123 932 0
122 -933 0
123 -933 0
-122 -123 933 0
-124 -934 0
-125 -934 0
124 125 934 0
-127 -935 0
-128 -935 0
127 128 935 0
11 -936 0
129 -936 0
-11 -129 936 0
-11 -937 0
-129 -937 0
11 129 937 0
-130 -938 0
-131 -938 0
130 131 938 0
108 -939 0
132 -939 0
-108 -132 939 0
100 -940 0
-117 -940 0
-100 117 940 0
-118 -941 0
-135 -941 0
118 135 941 0
-134 -942 0
136 -942 0
134 -136 942 0
134 -943 0
-136 -943 0
-134 136 943 0
-137 -944 0
-138 -944 0
137 138 944 0
-110 -945 0
112 -945 0
110 -112 945 0
-91 -946 0
-140 -946 0
91 140 946 0
10 -947 0
899 -947 0
-10 -899 947 0
11 -948 0
902 -948 0
-11 -902 948 0
-142 -949 0
143 -949 0
142 -143 949 0
142 -950 0
-143 -950 0
-142 143 950 0
-144 -951 0
-145 -951 0
144 145 951 0
-141 -952 0
-146 -952 0
141 146 952 0
141 -953 0
146 -953 0
-141 -146 953 0
-147 -954 0
-148 -954 0
147 148 954 0
-139 -955 0
-149 -955 0
139 149 955 0
139 -956 0
149 -956 0
-139 -149 956 0
-150 -957 0
-151 -957 0
150 151 957 0
-152 -958 0
-153 -958 0
152 153 958 0
152 -959 0
153 -959 0
-152 -153 959 0
-154 -960 0
-155 -960 0
154 155 960 0
-125 -961 0
-156 -961 0
125 156 961 0
125 -962 0
156 -962 0
-125 -156 962 0
-157 -963 0
-158 -963 0
157 158 963 0
-75 -964 0
-103 -964 0
75 103 964 0
-128 -965 0
-157 -965 0
128 157 965 0
159 -966 0
965 -966 0
-159 -965 966 0
964 -967 0
966 -967 0
-964 -966 967 0
-160 -968 0
162 -968 0
160 -162 968 0
160 -969 0
-162 -969 0
-160 162 969 0
-163 -970 0
-164 -970 0
163 164 970 0
12 -971 0
165 -971 0
-12 -165 971 0
-12 -972 0
-165 -972 0
12 165 972 0
-166 -973 0
-167 -973 0
166 167 973 0
133 -974 0
168 -974 0
-133 -168 974 0
73 -975 0
-169 -975 0
-73 169 975 0
-73 -976 0
169 -976 0
73 -169 976 0
-170 -977 0
-171 -977 0
170 171 977 0
-24 -978 0
172 -978 0
24 -172 978 0
24 -979 0
-172 -979 0
-24 172 979 0
-173 -980 0
-174 -980 0
173 174 980 0
14 -981 0
17 -981 0
-14 -17 981 0
170 -982 0
176 -982 0
-170 -176 982 0
-170 -983 0
-176 -983 0
170 176 983 0
-177 -984 0
-178 -984 0
177 178 984 0
-25 -985 0
179 -985 0
25 -179 985 0
25 -986 0
-179 -986 0
-25 179 986 0
-180 -987 0
-181 -987 0
180 181 987 0
175 -988 0
182 -988 0
-175 -182 988 0
72 -989 0
183 -989 0
-72 -183 989 0
14 -990 0
18 -990 0
-14 -18 990 0
177 -991 0
185 -991 0
-177 -185 991 0
-177 -992 0
-185 -992 0
177 185 992 0
-186 -993 0
-187 -993 0
186 187 993 0
-26 -994 0
188 -994 0
26 -188 994 0
26 -995 0
-188 -995 0
-26 188 995 0
-189 -996 0
-190 -996 0
189 190 996 0
14 -997 0
19 -997 0
-14 -19 997 0
186 -998 0
192 -998 0
-186 -192 998 0
-186 -999 0
-192 -999 0
186 192 999 0
-193 -1000 0
-194 -1000 0
193 194 1000 0
-27 -1001 0
195 -1001 0
27 -195 1001 0
27 -1002 0
-195 -1002 0
-27 195 1002 0
-196 -1003 0
-197 -1003 0
196 197 1003 0
191 -1004 0
198 -1004 0
-191 -198 1004 0
14 -1005 0
20 -1005 0
-14 -20 1005 0
193 -1006 0
200 -1006 0
-193 -200 1006 0
-193 -1007 0
-200 -1007 0
193 200 1007 0
-201 -1008 0
-202 -1008 0
201 202 1008 0
-28 -1009 0
203 -1009 0
28 -203 1009 0
28 -1010 0
-203 -1010 0
-28 203 1010 0
-204 -1011 0
-205 -1011 0
204 205 1011 0
14 -1012 0
21 -1012 0
-14 -21 1012 0
-201 -1013 0
207 -1013 0
201 -207 1013 0
201 -1014 0
-207 -1014 0
-201 207 1014 0
-208 -1015 0
-209 -1015 0
208 209 1015 0
-29 -1016 0
-210 -1016 0
29 210 1016 0
29 -1017 0
210 -1017 0
-29 -210 1017 0
-211 -1018 0
-212 -1018 0
211 212 1018 0
206 -1019 0
213 -1019 0
-206 -213 1019 0
199 -1020 0
214 -1020 0
-199 -214 1020 0
184 -1021 0
215 -1021 0
-184 -215 1021 0
16 -1022 0
176 -1022 0
-16 -176 1022 0
185 -1023 0
218 -1023 0
-185 -218 1023 0
192 -1024 0
219 -1024 0
-192 -219 1024 0
200 -1025 0
220 -1025 0
-200 -220 1025 0
207 -1026 0
221 -1026 0
-207 -221 1026 0
67 -1027 0
222 -1027 0
-67 -222 1027 0
-14 -1028 0
-15 -1028 0
14 15 1028 0
-16 -1029 0
-17 -1029 0
16 17 1029 0
225 -1030 0
226 -1030 0
-225 -226 1030 0
-18 -1031 0
-19 -1031 0
18 19 1031 0
-20 -1032 0
-21 -1032 0
20 21 1032 0
228 -1033 0
229 -1033 0
-228 -229 1033 0
227 -1034 0
230 -1034 0
-227 -230 1034 0
